p cnf 41 122
a 4 30 0
e 1 2 3 5 6 7 8 9 10 11 12 13 14 15 16 17 18 19 20 21 22 23 24 25 26 27 28 29 31 32 33 34 35 36 37 38 39 40 41 0
2 -3 -4 0
-2 3 -4 0
2 3 4 0
-2 -3 4 0
-5 4 0
-5 2 0
-4 -2 5 0
-6 1 0
-6 -5 0
-1 5 6 0
7 2 -9 0
-7 -2 -9 0
7 -2 9 0
-7 2 9 0
-8 -9 -10 0
8 9 -10 0
-8 9 10 0
8 -9 10 0
11 7 0
11 2 0
-7 -2 -11 0
-12 -10 0
-12 -11 0
10 11 12 0
7 12 -13 0
-7 -12 -13 0
7 -12 13 0
-7 12 13 0
2 14 -15 0
-2 -14 -15 0
2 -14 15 0
-2 14 15 0
-15 10 -16 0
15 -10 -16 0
-15 -10 16 0
15 10 16 0
-17 13 0
-17 16 0
-13 -16 17 0
18 6 0
18 17 0
-6 -17 -18 0
-19 -1 0
-19 9 0
1 -9 19 0
10 9 -20 0
-10 -9 -20 0
10 -9 20 0
-10 9 20 0
-21 -19 0
-21 -20 0
19 20 21 0
-22 -5 0
-22 10 0
5 -10 22 0
21 22 -23 0
-21 -22 -23 0
21 -22 23 0
-21 22 23 0
-24 2 0
-24 4 0
-2 -4 24 0
25 23 0
25 -24 0
-23 24 -25 0
2 12 -26 0
-2 -12 -26 0
2 -12 26 0
-2 12 26 0
27 -25 0
27 -26 0
25 26 -27 0
-28 -18 0
-28 -27 0
18 27 28 0
30 29 0
30 9 0
-29 -9 -30 0
31 -30 0
31 5 0
30 -5 -31 0
32 -31 0
32 -12 0
31 12 -32 0
7 8 -33 0
-7 -8 -33 0
7 -8 33 0
-7 8 33 0
-32 -33 -34 0
32 33 -34 0
-32 33 34 0
32 -33 34 0
-36 35 0
-36 -35 0
37 -1 0
37 -8 0
1 8 -37 0
29 37 -38 0
-29 -37 -38 0
29 -37 38 0
-29 37 38 0
-39 -36 0
-39 -38 0
36 38 39 0
-40 34 0
-40 -39 0
-34 39 40 0
-41 -28 0
-41 -40 0
28 40 41 0
-4 -34 -26 17 1 -40 -39 0
-31 -38 15 -35 -8 18 0
5 -24 -29 0
34 8 12 -13 20 40 17 0
-3 24 7 0
-37 -15 27 6 -13 -5 0
31 9 10 35 1 38 -29 0
-35 -40 -20 -6 -34 0
41 -7 6 0
13 -18 16 -38 0
17 -39 -8 22 7 0
41 0
